10	5
0	5	4	3	9	1	2
1	2	6	10
2	2	10	7
3	3	10	7	5
4	3	7	8	6
5	2	6	8
6	1	11
7	1	11
8	1	11
9	1	11
10	1	11
11	0
0	0	0	0	0	0	0
1	6	3	5	3	3	2
2	9	2	5	1	2	3
3	1	0	0	2	0	4
4	9	2	3	2	2	4
5	3	3	1	2	5	0
6	4	1	2	0	4	0
7	3	5	2	4	2	5
8	9	2	4	4	5	3
9	5	0	0	0	1	5
10	8	4	5	0	0	0
11	0	0	0	0	0	0
8	10	8	9	12
